c Random 5-CNF over 30 variables and 210 clauses
c Generated with `cnfgen`
c (C) 2012-2016 Massimo Lauria <lauria.massimo@gmail.com>
c https://massimolauria.github.io/cnfgen
c
c COMMAND LINE: cnfgen --output tmp-5-30-210.dimacs --output-format dimacs randkcnf 5 30 210
c
c sdimacs generated by gen-sdimacs
c
p cnf 30 210
e 16 17 18 19 20 21 22 23 24 25 26 27 28 29 30 0
r 0.37 1 2 3 4 5 6 7 8 9 10 11 12 13 14 15 0
-2 4 7 -19 -30 0
-7 -13 -14 -18 -25 0
-2 7 9 14 25 0
15 17 21 27 29 0
3 -7 10 15 -29 0
5 -6 8 11 -21 0
10 -11 -15 27 28 0
15 16 18 -26 -29 0
7 8 16 -20 -24 0
-6 -8 -16 18 -25 0
4 7 19 20 28 0
7 -9 14 19 30 0
1 9 23 28 30 0
-9 -15 17 -20 -21 0
-6 8 -19 -20 22 0
-5 -9 -17 -18 22 0
-6 13 20 25 -27 0
-3 -5 6 9 -16 0
9 11 24 25 29 0
18 -21 -24 25 30 0
6 19 26 -28 -29 0
-4 5 10 27 -28 0
1 -7 8 -12 -24 0
3 6 -9 12 -19 0
3 6 -15 -22 -23 0
-9 14 -26 -27 28 0
-17 -21 22 -23 -27 0
3 -10 -11 26 -28 0
3 6 -20 -21 29 0
-16 24 27 -28 29 0
-5 -7 13 17 -20 0
-11 -14 22 25 28 0
-1 -9 -19 -24 27 0
9 -12 -26 27 -30 0
-12 -19 24 -25 29 0
3 -10 13 14 -29 0
10 18 -21 26 -30 0
2 16 -19 -24 -27 0
10 -18 21 25 29 0
2 5 -13 -16 -26 0
3 11 16 -23 25 0
-1 2 6 8 26 0
11 -12 -13 -15 -21 0
4 18 -19 -24 -26 0
-3 -15 -17 -18 -25 0
1 17 18 19 -30 0
-3 5 6 14 26 0
4 -6 8 -12 17 0
-1 -4 -6 11 25 0
-1 10 -13 19 -29 0
8 13 16 17 -28 0
5 -6 11 19 -24 0
6 -9 -11 18 -21 0
-6 -12 -24 25 29 0
5 -11 22 -27 -28 0
19 -20 -22 23 -29 0
5 6 -12 -17 -23 0
-1 -8 15 25 -30 0
-7 18 -21 24 25 0
9 -12 20 -21 27 0
3 5 -7 16 22 0
11 -13 -17 -20 -24 0
8 -12 -18 25 30 0
11 -14 -18 27 -29 0
6 -15 -23 26 29 0
-2 3 -7 13 26 0
2 -13 -24 -25 28 0
9 11 14 -18 -28 0
1 2 -4 -8 -16 0
-2 11 13 15 28 0
1 -2 4 -12 -30 0
4 6 11 -20 -27 0
-3 -10 18 21 27 0
5 7 12 -18 -27 0
-7 10 -13 23 28 0
-7 -9 19 -25 26 0
-7 12 16 -25 -27 0
6 9 19 -24 -25 0
3 11 20 21 24 0
-2 9 10 11 -13 0
3 17 -25 27 28 0
2 6 -12 23 30 0
1 -3 -6 10 -17 0
-1 4 -12 -19 28 0
-2 13 17 -18 -22 0
-4 11 -17 21 30 0
-2 5 16 17 -20 0
8 -12 14 20 -21 0
-1 4 -16 -18 27 0
-4 -10 -15 -20 30 0
4 6 -13 -18 -20 0
-1 -2 -15 -19 28 0
-3 -8 14 -18 21 0
4 8 -12 18 -30 0
-2 -3 -6 -24 -28 0
1 -2 3 13 -14 0
-1 3 7 -9 11 0
-2 -4 14 18 28 0
11 12 -13 17 26 0
9 13 24 26 -28 0
-11 -13 16 19 -28 0
3 6 9 -13 26 0
1 7 25 -27 -29 0
5 -22 -24 -26 -29 0
-6 -7 9 -12 24 0
-1 10 -26 -27 -30 0
6 12 20 25 27 0
-7 9 -10 -14 21 0
-13 16 -18 24 -28 0
-1 -9 -18 -22 -29 0
-4 10 16 -29 -30 0
-1 -3 9 -12 -15 0
1 2 5 11 -30 0
12 -18 -19 -27 -28 0
-1 8 -12 -15 24 0
2 4 -15 -25 -30 0
-2 -6 -8 9 -11 0
-1 3 -15 -18 28 0
-2 -3 -8 -18 -24 0
-1 4 9 15 -24 0
2 -7 9 20 22 0
-3 -4 -15 -25 -26 0
-2 -4 6 15 29 0
-3 -14 16 21 -28 0
4 11 -15 19 30 0
-1 -15 -22 -23 -28 0
-4 -16 -17 -23 26 0
10 -17 -19 -21 -24 0
-3 6 -7 8 -15 0
-2 -3 -11 -19 -26 0
-3 7 10 12 -30 0
5 8 -16 18 27 0
4 5 -16 19 -29 0
1 -8 -10 16 -17 0
9 -10 15 16 -23 0
-6 8 -11 -26 -30 0
2 -7 10 -18 -27 0
1 2 -20 -24 -27 0
7 8 11 -23 29 0
6 -14 -19 -26 -29 0
-1 5 11 -12 29 0
1 3 -18 -24 30 0
-14 15 -17 22 -29 0
9 -14 -24 26 29 0
4 -8 -23 24 26 0
6 -12 18 -24 25 0
4 -11 14 -19 29 0
10 13 15 20 28 0
6 7 -11 -14 17 0
2 9 19 22 -23 0
6 7 -9 -21 -29 0
-7 10 11 20 22 0
-7 9 10 18 -29 0
2 -12 14 -15 27 0
-12 -17 -21 -24 26 0
-3 13 17 -18 -19 0
-1 10 -20 25 -30 0
-6 11 -13 18 23 0
5 15 -19 23 -27 0
-2 5 8 9 24 0
2 10 -16 17 23 0
-2 11 -13 16 -29 0
-3 5 -15 -19 -26 0
2 12 19 -26 -27 0
8 -10 12 26 -30 0
11 -14 21 -23 25 0
2 -11 -13 16 -24 0
5 -7 8 9 13 0
2 5 7 11 24 0
5 -11 -15 -18 28 0
-3 -12 13 -23 -29 0
4 -18 27 -29 30 0
1 3 10 14 30 0
-4 -6 12 -22 23 0
-12 -15 -19 -24 29 0
-8 15 16 -24 30 0
-2 4 20 24 -26 0
-7 -10 -14 -29 30 0
-1 8 -20 -24 29 0
-4 -21 22 -24 25 0
-4 12 17 24 -28 0
2 11 13 22 26 0
4 9 -19 -20 30 0
3 16 -19 23 24 0
-1 -10 11 -13 22 0
-2 3 -4 12 15 0
-2 9 -17 19 -29 0
-5 17 -24 28 -29 0
2 4 -11 12 -22 0
3 22 23 -24 -29 0
4 -5 11 -18 25 0
-2 -5 -10 -14 -21 0
1 -12 -16 19 -21 0
-2 13 18 -23 26 0
-14 -15 -16 -23 25 0
3 8 17 -19 -20 0
-2 -13 20 -22 29 0
5 -8 -12 13 -16 0
-6 -10 -19 -21 26 0
-9 15 21 -23 26 0
-2 13 15 16 30 0
3 -7 10 -15 26 0
-3 5 23 28 29 0
-9 18 -26 -29 -30 0
8 9 -15 -21 -29 0
5 17 21 -26 -28 0
-4 8 11 -19 -24 0
-8 -14 16 28 30 0
-5 -12 13 -15 29 0
-3 -8 17 28 -29 0
